17	4
16	19	21	17	
0	0	0	0	0	3	2	3	4	
5	2	4	0	1	3	5	7	8	
6	0	1	3	0	3	11	13	17	
1	0	4	0	0	2	9	14	
10	0	10	8	3	3	6	16	17	
175	0	4	7	0	3	12	15	17	
200	0	2	0	6	3	10	12	15	
150	6	0	0	0	3	11	16	17	
250	0	5	8	1	3	17	17	17	
200	1	0	10	0	3	17	17	17	
175	10	0	0	0	3	14	17	17	
100	2	2	0	2	3	17	17	17	
1	9	0	0	10	3	14	15	17	
9	8	5	0	0	3	17	17	17	
5	4	6	0	0	2	17	17	
3	3	0	2	0	3	17	17	17	
0	0	0	0	0	0	
